105 122 57 180 179 60 89 27 17 37 169 125 19 6 185 36 99 90 97 138 18 132 7 137 78 5 189 182 121 141 31 114 87 134 112 192 70 14 156 131 66 12 128 173 54 63 107 129 22 183 11 32 175 195 155 34 0 1 162 93 143 151 65 178 20 147 84 62 119 16 130 135 198 136 117 96 58 101 26 13 55 184 86 190 29 102 167 197 4 74 94 103 109 82 127 75 33 172 39 98 133 2 124 106 61 53 81 91 38 43 108 193 191 174 40 161 71 186 149 83 10 35 42 177 152 165 166 153 168 148 51 44 145 24 47 45 144 163 23 77 8 188 46 48 126 110 79 28 100 199 113 176 139 59 157 194 80 142 50 67 111 123 25 154 3 56 21 92 116 171 170 15 68 72 146 88 120 41 196 73 69 85 115 95 187 64 140 30 76 104 181 158 52 159 9 164 150 118 160 49 

